c turning on binary mode checking
c parsing input formula with 202048 variables and 780980 clauses
c finished parsing, read 18750274 bytes from proof file
c detected empty clause; start verification via backward checking
c 20086 of 780980 clauses in core                            
c 28890 of 487342 lemmas in core using 202659 resolution steps
c 0 RAT lemmas in core; 1755 redundant literals in core lemmas
s VERIFIED
c verification time: 2.617 seconds
